NAME: random-2-22776
TYPE: TSP
COMMENT: size=2 seed=22776
DIMENSION: 6
EDGE_WEIGHT_TYPE: EUC_2D
NODE_COORD_SECTION
+0 232 459
-0 232 459
+1 982 483
-1 207 61
+2 511 848
-2 542 30
PRECEDENCE_SECTION
+0 -0
+1 -1
+2 -2
EOF
